# Objective value = 2.9885281427026115e+02
x[0] 1
x[1] 1
x[2] -1.6601212680566656e-08
x[3] 0
x[4] 1
x[5] 1
x[6] 1
x[7] 0
x[8] 1
x[9] 0
x[10] 1
x[11] 0
x[12] 1
x[13] 1
x[14] 0
x[15] 1
x[16] 0
x[17] 0
x[18] 1
x[19] 1
x[20] 1
x[21] 0
x[22] 1
x[23] 0
x[24] 1
x[25] 1
x[26] -5.9803638263744574e-08
x[27] 1
x[28] 0
x[29] 1
x[30] 0
x[31] 0
x[32] 0
x[33] 1
x[34] 0
x[35] 1
x[36] 1
x[37] 0
x[38] 0
x[39] 1
x[40] 0
x[41] 1
x[42] 1
x[43] 1
x[44] 0
x[45] 0
x[46] 0
x[47] 1
x[48] 0
x[49] 1
x[50] 1
x[51] 1
x[52] 1
x[53] 1
x[54] 0
x[55] 1
x[56] 1
x[57] 0
x[58] 1
x[59] 1
x[60] 1
x[61] 1
x[62] 1
x[63] 0
x[64] 0
x[65] 0
x[66] 0
x[67] 1
x[68] 1
x[69] 1
x[70] 1
x[71] 1
x[72] 0
x[73] 1
x[74] 0
x[75] 3.1211518444798796e-07
x[76] 1
x[77] 0
x[78] 1
x[79] 0
x[80] 0
x[81] 0
x[82] 1
x[83] 3.1171697407575823e-07
x[84] 0
x[85] 1
x[86] 1
x[87] 0
x[88] 0
x[89] 0
x[90] 1
x[91] 0
x[92] 1
x[93] 1
x[94] 0
x[95] 0
x[96] 1
x[97] 0
x[98] 1
x[99] -3.1230788824974024e-07
x[100] 0
x[101] 0
x[102] 0
x[103] 1
x[104] 0
x[105] 0
x[106] 0
x[107] 1
x[108] 1
x[109] 0
x[110] 1
x[111] 0
x[112] -5.9803638263744574e-08
x[113] 1
x[114] 0
x[115] -1.6601212680566656e-08
x[116] 0
x[117] -3.0897455486006830e-07
x[118] 1
x[119] 0
x[120] 0
x[121] 0
x[122] 1
x[123] 0
x[124] 0
x[125] 1
x[126] 0
x[127] 1
x[128] 1
x[129] 1
x[130] 1
x[131] 1
x[132] 1
x[133] 1
x[134] 0
x[135] 1
x[136] 1
x[137] 1
x[138] 0
x[139] 0
x[140] 0
x[141] 0
x[142] 1
x[143] 0
x[144] 0
x[145] 0
x[146] -3.6535758948301837e-08
x[147] 0
x[148] 1
x[149] 1
x[150] 1
x[151] 1
x[152] 1
x[153] 0
x[154] 1
x[155] 1
x[156] 1
x[157] 0
x[158] 1
x[159] 1
x[160] 1
x[161] 1.0000006243412567e+00
x[162] 0
x[163] 0
x[164] 0
x[165] 1
x[166] 0
x[167] 1
x[168] 0
x[169] 0
x[170] 0
x[171] 0
x[172] 0
x[173] 0
x[174] 1
x[175] 1
x[176] 0
x[177] 0
x[178] 1
x[179] 1
x[180] 1
x[181] 1
x[182] 1
x[183] 0
x[184] 0
x[185] 1
x[186] 1
x[187] 1.0000000586963780e+00
x[188] 1
x[189] 0
x[190] 0
x[191] 0
x[192] 0
x[193] 1
x[194] 1
x[195] 1
x[196] 1
x[197] 1
x[198] 1
x[199] 1
x[200] 1
x[201] 1
x[202] 0
x[203] 0
x[204] 1
x[205] 1
x[206] 1
x[207] 1
x[208] 0
x[209] 0
x[210] 1
x[211] 1
x[212] 0
x[213] 1
x[214] 1
x[215] 1
x[216] 0
x[217] 1
x[218] 1
x[219] 0
x[220] 0
x[221] 0
x[222] 0
x[223] 0
x[224] 1.0000000595909853e+00
x[225] 0
x[226] 0
x[227] 1
x[228] 1
x[229] 0
x[230] 1
x[231] 1
x[232] 1
x[233] 1.0000000194203593e+00
x[234] 0
x[235] 0
x[236] 0
x[237] 0
x[238] 0
x[239] 1
x[240] 0
x[241] 0
x[242] 1
x[243] 0
x[244] 1
x[245] 0
x[246] 0
x[247] 1
x[248] 1
x[249] 1
x[250] 0
x[251] 1
x[252] 0
x[253] 0
x[254] 1
x[255] 1
x[256] 0
x[257] 1
x[258] 0
x[259] 0
x[260] 0
x[261] 0
x[262] -1.9934546013899990e-08
x[263] 1
x[264] 1
x[265] 1
x[266] 0
x[267] 0
x[268] 0
x[269] 1
x[270] 1
x[271] 0
x[272] 1
x[273] 1
x[274] 1
x[275] 0
x[276] 0
x[277] 0
x[278] 1
x[279] 0
x[280] 1
x[281] 1
x[282] 0
x[283] 0
x[284] 0
x[285] 1
x[286] 1
x[287] 1
x[288] 0
x[289] 1
x[290] 0
x[291] 0
x[292] 0
x[293] 1
x[294] 1
x[295] 0
x[296] 0
x[297] 0
x[298] 1
x[299] 1
x[300] 0
x[301] 0
x[302] 1
x[303] 1
x[304] 0
x[305] 0
x[306] -3.0897455488390032e-07
x[307] 0
x[308] 0
x[309] 1
x[310] 0
x[311] 1
x[312] 0
x[313] 1
x[314] 0
x[315] 1
x[316] 1
x[317] 0
x[318] 0
x[319] 1
x[320] 0
x[321] 1
x[322] 1
x[323] 0
x[324] 1
x[325] 1
x[326] 1
x[327] 1
x[328] 0
x[329] 0
x[330] 0
x[331] 1
x[332] 1
x[333] 1
x[334] 1
x[335] 1
x[336] 1
x[337] 1.0000000376431801e+00
x[338] 0
x[339] 0
x[340] 1
x[341] 0
x[342] 1
x[343] 0
x[344] 1
x[345] 1.0000000196990773e+00
x[346] 1
x[347] 1
x[348] 0
x[349] 0
x[350] 0
x[351] 1
x[352] 0
x[353] 1
x[354] 0
x[355] 1
x[356] 0
x[357] 0
x[358] 1
x[359] 3.9561733772813272e-08
x[360] 0
x[361] 0
x[362] 1
x[363] 1
x[364] 1
x[365] 0
x[366] 0
x[367] 1
x[368] 0
x[369] 0
x[370] 1
x[371] 1
x[372] 0
x[373] 1
x[374] 1
x[375] 0
x[376] 1
x[377] 1
x[378] 1
x[379] 0
x[380] 0
x[381] 0
x[382] 0
x[383] 1
x[384] 1
x[385] 1
x[386] 0
x[387] 1
x[388] 0
x[389] 0
x[390] 0
x[391] 1
x[392] 0
x[393] 0
x[394] 1
x[395] 0
x[396] 1
x[397] 0
x[398] 1
x[399] 0
x[400] 0
x[401] 0
x[402] 1
x[403] 1
x[404] 0
x[405] 0
x[406] 0
x[407] 0
x[408] 1
x[409] 0
x[410] 1
x[411] 1
x[412] 0
x[413] 1
x[414] 1
x[415] 1
x[416] 0
x[417] 0
x[418] 0
x[419] 1
x[420] 0
x[421] 0
x[422] 0
x[423] 0
x[424] 1
x[425] 0
x[426] 1
x[427] 1
x[428] 0
x[429] 0
x[430] 0
x[431] 0
x[432] 1
x[433] 0
x[434] 0
x[435] 1
x[436] 1
x[437] 0
x[438] 0
x[439] 0
x[440] 1
x[441] 1
x[442] 1
x[443] 0
x[444] 1
x[445] 0
x[446] 1
x[447] 0
x[448] 0
x[449] 0
x[450] 0
x[451] 0
x[452] 0
x[453] 0
x[454] 0
x[455] 0
x[456] 0
x[457] 1
x[458] 0
x[459] 0
x[460] 0
x[461] 0
x[462] 9.9999968769211178e-01
x[463] 1.0000003111866256e+00
x[464] 1
x[465] 0
x[466] 1
x[467] 1
x[468] 0
x[469] 1
x[470] 1
x[471] 0
x[472] 0
x[473] 0
x[474] 0
x[475] 0
x[476] 0
x[477] 1
x[478] 1
x[479] 0
x[480] 1
x[481] 0
x[482] 0
x[483] 0
x[484] 0
x[485] 1
x[486] 0
x[487] 1
x[488] 0
x[489] 1
x[490] 0
x[491] 1
x[492] 1
x[493] 0
x[494] 0
x[495] 1
x[496] 9.9999968769211178e-01
x[497] 1
x[498] 1
x[499] 0
x[500] 0
x[501] 1
x[502] 1
x[503] 0
x[504] 0
x[505] 1
x[506] 0
x[507] 0
x[508] 0
x[509] 0
x[510] 0
x[511] 1
x[512] 0
x[513] 0
x[514] 0
x[515] 0
x[516] 1
x[517] 1
x[518] 1
x[519] 0
x[520] 1
x[521] 0
x[522] 0
x[523] 0
x[524] 0
x[525] 1
x[526] 0
x[527] 1
x[528] 1
x[529] 0
x[530] 0
x[531] 1
x[532] 1
x[533] 1
x[534] 1
x[535] 1
x[536] 1
x[537] 0
x[538] 0
x[539] 1
x[540] 1
x[541] 0
x[542] 0
x[543] 1
x[544] 0
x[545] 0
x[546] 1
x[547] 0
x[548] 0
x[549] 1
x[550] 1
x[551] 0
x[552] 1
x[553] 0
x[554] 0
x[555] 0
x[556] 0
x[557] 0
x[558] 1
x[559] 0
x[560] 1
x[561] 0
x[562] 0
x[563] 1
x[564] 1
x[565] 1
x[566] 1
x[567] 1
x[568] 1
x[569] 0
x[570] 1
x[571] 1
x[572] 0
x[573] 1
x[574] 0
x[575] 1
x[576] 0
x[577] 1
x[578] 0
x[579] 1
x[580] 1
x[581] 1
x[582] 1
x[583] 0
x[584] 0
x[585] 1
x[586] 1
x[587] 1
x[588] 1
x[589] 1
x[590] 0
x[591] 1
x[592] 1
x[593] 0
x[594] 1
x[595] 1
x[596] 0
x[597] 0
x[598] 1
x[599] 1
x[600] 1
x[601] 1
x[602] 1
x[603] 1
x[604] 0
x[605] 1
x[606] 0
x[607] 1
x[608] 1
x[609] 0
x[610] 0
x[611] 1
x[612] 1
x[613] 0
x[614] 1
x[615] 0
x[616] 0
x[617] 1
x[618] 0
x[619] 1
x[620] 1
x[621] 1
x[622] 1
x[623] 0
x[624] 1
x[625] 1
x[626] 0
x[627] 1
x[628] 1
x[629] 1
x[630] 0
x[631] 1
x[632] 0
x[633] 1
x[634] 0
x[635] 0
x[636] 1
x[637] 1.0000003119673204e+00
x[638] 0
x[639] 1
x[640] 1.0000000587143294e+00
x[641] 1
x[642] 0
x[643] 1
x[644] 0
x[645] 1
x[646] 1
x[647] 0
x[648] 0
x[649] 0
x[650] 1
x[651] 0
x[652] 1
x[653] 1
x[654] 0
x[655] 1
x[656] 1
x[657] 1
x[658] 1
x[659] 0
x[660] -3.0897455486006830e-07
x[661] 1
x[662] 0
x[663] 0
x[664] 0
x[665] 1
x[666] 0
x[667] 1
x[668] 1
x[669] 1.0000000595546221e+00
x[670] 1
x[671] 0
x[672] 1
x[673] 1
x[674] 1
x[675] 0
x[676] 0
x[677] 1
x[678] 1.0000000195629370e+00
x[679] 1
x[680] 0
x[681] 1
x[682] 0
x[683] 1
x[684] 0
x[685] 1
x[686] 0
x[687] 1
x[688] 0
x[689] 1
x[690] 1.00000005939324
x[691] 1
x[692] 1
x[693] 1
x[694] 0
x[695] 0
x[696] 1
x[697] 0
x[698] 1
x[699] 0
x[700] 0
x[701] 0
x[702] 0
x[703] 1
x[704] 1
x[705] 1
x[706] 0
x[707] 1
x[708] 1
x[709] 1
x[710] 1
x[711] 0
x[712] 1
x[713] 0
x[714] 0
x[715] 1
x[716] 0
x[717] 1.00000005932742
x[718] 0
x[719] 1.0000003121028127e+00
x[720] 0
x[721] 0
x[722] 0
x[723] 0
x[724] 1
x[725] 1
x[726] 1
x[727] 1
x[728] 0
x[729] 1
x[730] 0
x[731] 0
x[732] 1
x[733] 1
x[734] 1
x[735] 0
x[736] 0
x[737] 1
x[738] 0
x[739] 0
x[740] 1
x[741] 0
x[742] 0
x[743] 1
x[744] 1
x[745] 0
x[746] 0
x[747] 1
x[748] 0
x[749] 0
x[750] 0
x[751] 0
x[752] 0
x[753] 1
x[754] 0
x[755] 1
x[756] 0
x[757] 1
x[758] 0
x[759] 0
x[760] 0
x[761] 0
x[762] 0
x[763] 0
x[764] 1
x[765] 1
x[766] 0
x[767] 0
x[768] 1
x[769] 0
x[770] 0
x[771] 1
x[772] 0
x[773] 1
x[774] 1
x[775] -5.6470304896823152e-08
x[776] 0
x[777] 0
x[778] 0
x[779] 1
x[780] 0
x[781] 0
x[782] 0
x[783] 0
x[784] 1
x[785] 1
x[786] 0
x[787] 0
x[788] 1
x[789] 0
x[790] 0
x[791] 1
x[792] 0
x[793] 1
x[794] 0
x[795] 1
x[796] 0
x[797] 1
x[798] 0
x[799] -3.1230788821723365e-07
x[800] 0
x[801] 1
x[802] 1
x[803] 1
x[804] 0
x[805] 0
x[806] 1
x[807] 0
x[808] 1
x[809] 0
x[810] 0
x[811] 1
x[812] 1
x[813] 0
x[814] 1
x[815] 1
x[816] 1
x[817] 1
x[818] 1
x[819] 0
x[820] 0
x[821] 0
x[822] 0
x[823] 1
x[824] 0
x[825] 0
x[826] 0
x[827] 1
x[828] 0
x[829] 0
x[830] 1
x[831] 0
x[832] 1
x[833] 1
x[834] 1
x[835] 1
x[836] 0
x[837] 1
x[838] 1
x[839] 0
x[840] 1
x[841] 1
x[842] 9.6032449295333122e-08
x[843] 0
x[844] 1
x[845] 0
x[846] 1
x[847] 9.9999984384605611e-01
x[848] 0
x[849] 0
x[850] 0
x[851] 1
x[852] 0
x[853] 1
x[854] 0
x[855] 0
x[856] 1
x[857] 0
x[858] 0
x[859] 1
x[860] 0
x[861] 0
x[862] 1
x[863] 1
x[864] 0
x[865] 0
x[866] 1.0000000196181671e+00
x[867] 1
x[868] 1
x[869] 1
x[870] 1
x[871] 0
x[872] 0
x[873] 1
x[874] 0
x[875] -5.6059906752058746e-08
x[876] 0
x[877] 1
x[878] 0
x[879] 1
x[880] 0
x[881] 1
x[882] 0
x[883] 1
x[884] 1
x[885] 0
x[886] 0
x[887] 0
x[888] 0
x[889] 0
x[890] 1
x[891] 1
x[892] 1
x[893] 0
x[894] 1
x[895] 0
x[896] 0
x[897] 0
x[898] 0
x[899] 1
x[900] 0
x[901] 1
x[902] 0
x[903] 0
x[904] 1
x[905] 0
x[906] 1
x[907] 0
x[908] 1
x[909] 0
x[910] 1
x[911] 1
x[912] 0
x[913] 1
x[914] 1
x[915] 1
x[916] 0
x[917] 0
x[918] 0
x[919] 0
x[920] 1
x[921] 0
x[922] 0
x[923] 1
x[924] 1
x[925] 1
x[926] 1.0000003119446215e+00
x[927] 0
x[928] 0
x[929] 1
x[930] 0
x[931] 1
x[932] 1
x[933] 1
x[934] 0
x[935] 0
x[936] 1
x[937] 0
x[938] 1
x[939] 0
x[940] 1
x[941] 0
x[942] 1
x[943] 1
x[944] 1
x[945] 0
x[946] 1
x[947] 1
x[948] 0
x[949] 1
x[950] 0
x[951] 0
x[952] 1
x[953] 0
x[954] 0
x[955] 1
x[956] 1
x[957] 1
x[958] 0
x[959] 1
x[960] 0
x[961] 0
x[962] 0
x[963] 1
x[964] 0
x[965] 1
x[966] 0
x[967] 0
x[968] 0
x[969] 0
x[970] 1
x[971] 0
x[972] 0
x[973] 0
x[974] 1
x[975] 0
x[976] 1
x[977] 0
x[978] 0
x[979] 0
x[980] 0
x[981] 1
x[982] 0
x[983] 9.9999969102544517e-01
x[984] 1
x[985] 0
x[986] 1
x[987] 0
x[988] 1
x[989] -5.9803638215569641e-08
x[990] 1.0000000595894092e+00
x[991] 0
x[992] 1
x[993] 1
x[994] 0
x[995] 0
x[996] 0
x[997] 1
x[998] 0
x[999] 1
